unsat
(:max-memory         18.62
 :memory             18.52
 :nlsat-arith-var    3
 :nlsat-atoms        11
 :nlsat-bool-var     2
 :nlsat-clauses      8
 :nlsat-conflicts    3
 :nlsat-propagations 10
 :nlsat-stages       3
 :num-allocs         69139
 :rlimit-count       10239
 :time               0.01
 :total-time         0.02)
